certificates/rado_a15_c259_N42.drat
-38 -39 -42 0
19 38 -40 0
-39 -40 -42 0
-19 -40 -41 -42 0
-40 -41 -42 0
d -19 -40 -41 -42 0
-38 -41 -42 0
19 38 -42 0
-41 -42 0
d -40 -41 -42 0
38 -42 0
d 19 38 -42 0
-42 0
19 -38 0
12 16 0
d 12 31 16 0
-19 -38 0
d -12 -19 -38 0
-38 0
17 0
-13 0
-21 0
16 0
-35 0
-12 0
-20 0
-36 0
19 0
1 0
-23 0
-15 0
-5 0
-27 0
18 0
4 0
8 0
2 0
39 0
-7 0
-29 0
-37 0
-30 0
0
